[[84, 85, 76, 77, 78, 75, 74, 66, 68, 67, 59, 58, 57, 56, 65, 64, 55, 46, 47, 38, 48, 39, 40, 41, 32, 29, 37, 28, 30, 31, 21, 22, 19, 20, 11, 10, 2, 3, 12, 13, 4, 14, 5, 6, 7, 8, 9, 18, 17], [16, 15, 23, 24, 25, 26, 27, 35, 36, 44, 34, 33, 42, 43, 45, 54, 63, 53, 52, 51, 50, 49, 60, 61, 62, 69, 70, 71, 72, 81, 80, 79, 88, 89, 90, 99, 98, 97, 96, 87, 86, 95, 94, 93, 92, 91, 83, 82, 73]]